68
Time limit set to 60 seconds
Running CP solver
/home/omastto1/General-Optimization-Solver/src/solvers/mmrcpsp.py:42(stream:108:6): Warning: Cumulative expression 'pulse': height is zero, expression is zero everywhere.
                                                                                               VarCumulAtom_149 = pulse(task_0_mode_0, 0)
/home/omastto1/General-Optimization-Solver/src/solvers/mmrcpsp.py:42(stream:108:1255): Warning: Cumulative expression 'pulse': height is zero, expression is zero everywhere.
                                                                                                  VarCumulAtom_198 = pulse(task_17_mode_0, 0)
/home/omastto1/General-Optimization-Solver/src/solvers/mmrcpsp.py:42(stream:109:6): Warning: Cumulative expression 'pulse': height is zero, expression is zero everywhere.
                                                                                               VarCumulAtom_202 = pulse(task_0_mode_0, 0)
/home/omastto1/General-Optimization-Solver/src/solvers/mmrcpsp.py:42(stream:109:1254): Warning: Cumulative expression 'pulse': height is zero, expression is zero everywhere.
                                                                                                  VarCumulAtom_251 = pulse(task_17_mode_0, 0)
 ! --------------------------------------------------- CP Optimizer 20.1.0.0 --
 ! Minimization problem - 69 variables, 51 constraints
 ! TimeLimit            = 60
 ! Workers              = 14
 ! LogVerbosity         = Terse
 ! Initial process time : 0.01s (0.01s extraction + 0.00s propagation)
 !  . Log search space  : 157.6 (before), 157.6 (after)
 !  . Memory usage      : 754.6 kB (before), 754.6 kB (after)
 ! Using parallel search with 14 workers.
 ! ----------------------------------------------------------------------------
 !          Best Branches  Non-fixed    W       Branch decision
                        0         69                 -
 + New bound is 31
 ! Using iterative diving.
 ! Using temporal relaxation.
 *            49       48  0.71s        1      (gap is 36.73%)
 *            43      120  0.71s        1      (gap is 27.91%)
 *            42      160  0.71s        1      (gap is 26.19%)
 *            40      200  0.71s        1      (gap is 22.50%)
 *            39      254  0.71s        1      (gap is 20.51%)
 *            38      294  0.71s        1      (gap is 18.42%)
 *            37      334  0.71s        1      (gap is 16.22%)
 *            36      417  0.71s        1      (gap is 13.89%)
 *            35      449  0.71s        1      (gap is 11.43%)
 *            34      485  0.71s        1      (gap is 8.82%)
 ! Using failure-directed search.
 *            33      747  0.71s        2      (gap is 6.06%)
 *            32      911  0.71s        2      (gap is 3.12%)
 *            31     2186  0.71s        6      (gap is 0.00%)
 ! ----------------------------------------------------------------------------
 ! Search completed, 13 solutions found.
 ! Best objective         : 31 (optimal - effective tol. is 0)
 ! Best bound             : 31
 ! ----------------------------------------------------------------------------
 ! Number of branches     : 107223
 ! Number of fails        : 24747
 ! Total memory usage     : 9.7 MB (9.6 MB CP Optimizer + 0.1 MB Concert)
 ! Time spent in solve    : 1.11s (1.10s engine + 0.01s extraction)
 ! Search speed (br. / s) : 98369.7
 ! ----------------------------------------------------------------------------
task_0: (start=0, end=0, size=0, length=0)
Task 0 is scheduled in mode 0 from 0 to 0
task_1: (start=0, end=6, size=6, length=6)
Task 1 is scheduled in mode 1 from 0 to 6
task_2: (start=0, end=1, size=1, length=1)
Task 2 is scheduled in mode 1 from 0 to 1
task_3: (start=0, end=1, size=1, length=1)
Task 3 is scheduled in mode 0 from 0 to 1
task_4: (start=6, end=14, size=8, length=8)
Task 4 is scheduled in mode 2 from 6 to 14
task_5: (start=1, end=9, size=8, length=8)
Task 5 is scheduled in mode 2 from 1 to 9
task_6: (start=1, end=10, size=9, length=9)
Task 6 is scheduled in mode 2 from 1 to 10
task_7: (start=6, end=13, size=7, length=7)
Task 7 is scheduled in mode 2 from 6 to 13
task_8: (start=9, end=12, size=3, length=3)
Task 8 is scheduled in mode 2 from 9 to 12
task_9: (start=13, end=16, size=3, length=3)
Task 9 is scheduled in mode 0 from 13 to 16
task_10: (start=16, end=23, size=7, length=7)
Task 10 is scheduled in mode 1 from 16 to 23
task_11: (start=16, end=20, size=4, length=4)
Task 11 is scheduled in mode 1 from 16 to 20
task_12: (start=12, end=21, size=9, length=9)
Task 12 is scheduled in mode 1 from 12 to 21
task_13: (start=21, end=24, size=3, length=3)
Task 13 is scheduled in mode 0 from 21 to 24
task_14: (start=20, end=26, size=6, length=6)
Task 14 is scheduled in mode 1 from 20 to 26
task_15: (start=23, end=31, size=8, length=8)
Task 15 is scheduled in mode 2 from 23 to 31
task_16: (start=24, end=31, size=7, length=7)
Task 16 is scheduled in mode 0 from 24 to 31
task_17: (start=31, end=31, size=0, length=0)
Task 17 is scheduled in mode 0 from 31 to 31
Optimal solution found
Objective value: 31
Solution is optimal.
